examples/con/graph-20-51.param
$ generated by rg.pl with seed 51
letting n be 20
$ 33 edges
letting E be {{6,8},{3,12},{5,11},{14,16},{3,5},{3,6},{7,17},{3,19},{8,12},{2,14},{3,7},{2,4},{2,9},{2,20},{6,16},{17,20},{5,6},{11,15},{1,12},{1,3},{13,18},{2,19},{12,20},{5,17},{3,9},{13,20},{9,13},{2,10},{1,19},{4,12},{2,12},{3,15},{2,6}}
